import time
import psi4
import numpy as np
from psi_metropolis import monte_carlo
import random as rand
#from scipy import linalg as SLA
np.set_printoptions(precision=5, linewidth=200, suppress=True)

# Memory for Psi4 in GB
memory 2 GB

# Memory for numpy in GB
numpy_memory = 2

# Specify Initial geometry of molecule, you can specify initial geometry in any format,
# however, everything is handled in xyz coordinates for the rest of the time
molecule mol {
O
H 1 1.1
H 1 1.1 2 104.5
symmetry c1
}

set {
basis cc-pVDZ
scf_type pk
e_convergence 1e-8
}

monte_carlo(mol, "rhf", 275.15, 0.05, 20)
